Minimize
  - 10 y_0 - 10 y_1 - 4 y_2 - 10 y_3 - 10 y_4 - 7 y_5 - 3 y_6 - 5 y_7
   - 10 y_8 - 8 y_9 - 7 y_10 - 5 y_11 - 11 y_12 - 13 y_13 - 12 y_14
   - 3 y_15 - 7 y_16 - y_17 - 4 y_18 - 9 y_19 - 13 y_20 - 2 y_21 - 3 y_22
   - 4 y_23 - 3 y_24 - 13 y_25 - 8 y_26 - 12 y_27 - 3 y_28 - 11 y_29
   - 7 y_30 - 3 y_31 - 8 y_32 - 8 y_33 - 10 y_34 - 6 y_35 - 9 y_36 - 7 y_37
   - 14 y_38 - 7 y_39 - 11 y_40 - 5 y_41 - 10 y_42 - 10 y_43 - 13 y_44
   - 7 y_45 - 7 y_46 - 7 y_47 - 10 y_49 + 380 Constant
Subject To
 c_0: y_45 = 1
 c_1_0: y_0 + y_4 + y_33 + y_40 >= 1
 c_1_1: y_1 >= 1
 c_1_2: y_2 + y_6 + y_7 + y_22 + y_31 >= 1
 c_1_3: y_3 >= 1
 c_1_4: y_0 + y_4 + y_26 + y_29 + y_40 >= 1
 c_1_5: y_5 + y_30 >= 1
 c_1_6: y_2 + y_6 + y_17 + y_21 + y_22 + y_24 + y_31 >= 1
 c_1_7: y_2 + y_7 >= 1
 c_1_8: y_8 >= 1
 c_1_9: y_9 + y_26 >= 1
 c_1_10: y_10 + y_16 >= 1
 c_1_11: y_11 >= 1
 c_1_12: y_12 + y_36 + y_42 >= 1
 c_1_13: y_13 >= 1
 c_1_14: y_14 >= 1
 c_1_15: y_15 + y_17 + y_18 + y_21 + y_22 + y_24 + y_31 >= 1
 c_1_16: y_10 + y_16 >= 1
 c_1_17: y_6 + y_15 + y_17 + y_21 + y_24 + y_31 + y_48 >= 1
 c_1_18: y_15 + y_18 + y_21 >= 1
 c_1_19: y_19 + y_36 + y_47 >= 1
 c_1_20: y_20 + y_25 + y_38 + y_44 >= 1
 c_1_21: y_6 + y_15 + y_17 + y_18 + y_21 + y_22 + y_24 + y_31 >= 1
 c_1_22: y_2 + y_6 + y_15 + y_21 + y_22 + y_24 + y_31 >= 1
 c_1_23: y_23 >= 1
 c_1_24: y_6 + y_15 + y_17 + y_21 + y_22 + y_24 + y_31 >= 1
 c_1_25: y_20 + y_25 + y_44 >= 1
 c_1_26: y_4 + y_9 + y_26 >= 1
 c_1_27: y_27 + y_49 >= 1
 c_1_28: y_28 >= 1
 c_1_29: y_4 + y_29 + y_40 >= 1
 c_1_30: y_5 + y_30 >= 1
 c_1_31: y_2 + y_6 + y_15 + y_17 + y_21 + y_22 + y_24 + y_31 >= 1
 c_1_32: y_32 + y_45 >= 1
 c_1_33: y_0 + y_33 >= 1
 c_1_34: y_34 >= 1
 c_1_35: y_35 + y_46 >= 1
 c_1_36: y_12 + y_19 + y_36 + y_42 + y_47 >= 1
 c_1_37: y_37 >= 1
 c_1_38: y_20 + y_38 + y_44 >= 1
 c_1_39: y_39 + y_41 >= 1
 c_1_40: y_0 + y_4 + y_29 + y_40 >= 1
 c_1_41: y_39 + y_41 >= 1
 c_1_42: y_12 + y_36 + y_42 >= 1
 c_1_43: y_43 >= 1
 c_1_44: y_20 + y_25 + y_38 + y_44 >= 1
 c_1_45: y_32 + y_45 >= 1
 c_1_46: y_35 + y_46 >= 1
 c_1_47: y_19 + y_36 + y_47 >= 1
 c_1_48: y_17 + y_48 >= 1
 c_1_49: y_27 + y_49 >= 1
Bounds
 Constant = 1
Binaries
 y_0 y_1 y_2 y_3 y_4 y_5 y_6 y_7 y_8 y_9 y_10 y_11 y_12 y_13 y_14 y_15 y_16
 y_17 y_18 y_19 y_20 y_21 y_22 y_23 y_24 y_25 y_26 y_27 y_28 y_29 y_30 y_31
 y_32 y_33 y_34 y_35 y_36 y_37 y_38 y_39 y_40 y_41 y_42 y_43 y_44 y_45 y_46
 y_47 y_48 y_49
End
